1 126.2 42.3 0
2 6.9 114.8 12
3 11.6 28.7 13
4 33.1 136.0 14
5 33.1 106.9 20
6 38.4 71.4 25
7 39.4 126.2 22
8 58.7 36.8 11
9 69.6 69.3 11
10 78.6 120.4 31
11 83.3 54.8 14
12 85.5 42.8 24
13 90.0 100.3 19
14 90.2 11.1 32
15 91.3 63.2 28
16 99.8 10.6 20
17 105.0 83.9 17
18 109.0 37.6 22
19 115.6 63.2 34
20 120.1 56.1 34
21 131.1 39.7 24
22 137.3 29.6 25
23 140.8 63.0 26
24 148.4 56.4 21
25 153.2 38.4 24
26 163.8 42.1 33
27 165.1 19.6 22
28 169.9 108.2 24
29 173.3 39.4 33
30 181.0 45.5 24
31 183.1 80.4 43
32 183.9,31.2 12
33 186.8,18.5 12
34 188.4,35.5 13
35 190.8,114.6 14
36 195.0,89.4 29
37 199.0,113.0 25
28 210.9,31.5 22
29 236.0,32.8 11